Minimize
  obj: x0 + x1 + x2 + x3

Subject To
  c0: x0 + x1 = 32
  c1: x2 + x3 = 26
  c2: x1 + x2 + x3 = 43
  c3: x0 + x3 = 28
  c4: x1 + x2 + x3 = 43

Bounds
  x0 >= 0
  x1 >= 0
  x2 >= 0
  x3 >= 0

Generals
  x0 x1 x2 x3

End
